(declare-const term_to_project_onto2 Real)
(declare-const term_to_project_onto0 Real)
(declare-const term_to_project_onto5 Real)
(declare-const term_to_project_onto8 Real)
(declare-const term_to_project_onto7 Real)
(declare-const term_to_project_onto3 Real)
(declare-const term_to_project_onto Real)
(declare-const term_to_project_onto1 Real)
(declare-const term_to_project_onto6 Real)
(declare-const term_to_project_onto4 Real)
(assert (exists
         ((|param2@width'?1| Int) (|param1@width'?2| Int)
            (|param0@width'?3| Int) (|param2@pos'?4| Int)
            (|param1@pos'?5| Int) (|param0@pos'?6| Int) (|param2'?7| Int)
            (|param1'?8| Int) (|param0'?9| Int) (|j'?10| Int) (tr?11 Int)
            (phi_param2@width?12 Int) (type_err?13 Int)
            (phi_param1@width?14 Int) (phi_param0@width?15 Int)
            (phi_param2@pos?16 Int) (type_err?17 Int) (phi_param1@pos?18 Int)
            (phi_param0@pos?19 Int) (phi_param2?20 Int) (phi_param1?21 Int)
            (tr?22 Int) (phi_param0?23 Int) (tr?24 Int) (tr?25 Int)
            (tr?26 Int) (tr?27 Int) (param2@width?28 Int)
            (param1@width?29 Int) (param2@pos?30 Int) (param1@pos?31 Int)
            (param2?32 Int) (param1?33 Int) (param0@width?34 Int)
            (param0@pos?35 Int) (param0?36 Int) (j?37 Int) (i?38 Int))
         (and (<= (- j?37) 0) (<= (- i?38) 0)
                (or (<= (+ tr?27 1) 0) (<= (+ (- tr?26) 1) 0))
                (or (and (= (+ tr?25 -1) 0)
                           (= (+ (- phi_param0?23) tr?24 i?38) 0)
                           (= (+ (- phi_param1?21) tr?22 i?38 1) 0)
                           (= (+ (- phi_param2?20) (- i?38) 1000) 0)
                           (= (+ (- phi_param0@pos?19) i?38) 0)
                           (= (+ (- phi_param1@pos?18) i?38 1) 0)
                           (= (+ (- phi_param2@pos?16) type_err?17) 0)
                           (= (+ (- phi_param0@width?15) 1) 0)
                           (= (+ (- phi_param1@width?14) 1) 0)
                           (= (+ (- phi_param2@width?12) type_err?13) 0))
                      (and (or (<= tr?11 0) (<= (+ (- tr?11) 2) 0))
                             (= (+ param0?36 (- phi_param0?23)) 0)
                             (= (+ param1?33 (- phi_param1?21)) 0)
                             (= (+ param2?32 (- phi_param2?20)) 0)
                             (= (+ param0@pos?35 (- phi_param0@pos?19)) 0)
                             (= (+ param1@pos?31 (- phi_param1@pos?18)) 0)
                             (= (+ param2@pos?30 (- phi_param2@pos?16)) 0)
                             (= (+ param0@width?34 (- phi_param0@width?15)) 0)
                             (= (+ param1@width?29 (- phi_param1@width?14)) 0)
                             (= (+ param2@width?28 (- phi_param2@width?12)) 0)))
                (= (+ |param2@width'?1| (- phi_param2@width?12)) 0)
                (= (+ |param1@width'?2| (- phi_param1@width?14)) 0)
                (= (+ |param0@width'?3| (- phi_param0@width?15)) 0)
                (= (+ |param2@pos'?4| (- phi_param2@pos?16)) 0)
                (= (+ |param1@pos'?5| (- phi_param1@pos?18)) 0)
                (= (+ |param0@pos'?6| (- phi_param0@pos?19)) 0)
                (= (+ |param2'?7| (- phi_param2?20)) 0)
                (= (+ |param1'?8| (- phi_param1?21)) 0)
                (= (+ |param0'?9| (- phi_param0?23)) 0)
                (= (+ |j'?10| (- j?37) -1) 0)
                (= term_to_project_onto8 (+ |j'?10| (- j?37)))
                (= term_to_project_onto7 (+ |param0'?9| (- param0?36)))
                (= term_to_project_onto6 (+ |param1'?8| (- param1?33)))
                (= term_to_project_onto5 (+ |param2'?7| (- param2?32)))
                (= term_to_project_onto4 (+ |param0@pos'?6| (- param0@pos?35)))
                (= term_to_project_onto3 (+ |param1@pos'?5| (- param1@pos?31)))
                (= term_to_project_onto2 (+ |param2@pos'?4| (- param2@pos?30)))
                (= term_to_project_onto1 (+ |param0@width'?3|
                                              (- param0@width?34)))
                (= term_to_project_onto0 (+ |param1@width'?2|
                                              (- param1@width?29)))
                (= term_to_project_onto (+ |param2@width'?1|
                                             (- param2@width?28))))))
(check-sat)
